0 0 0 0
0 1 0 0
0 2 0 0
0 3 0 0
0 4 1 1
0 5 0 1
0 6 0 3
0 7 1 1
0 8 2 9
0 9 0 1
0 10 0 1
0 11 0 6
0 12 0 4
0 13 0 5
0 14 0 1
0 15 0 10
0 16 0 16
0 17 0 12
0 18 2 5
0 19 0 9
0 20 1 11
0 21 1 9
0 22 0 3
0 23 0 16
0 24 0 18
0 25 0 16
0 26 1 18
0 27 0 19
0 28 1 19
0 29 0 24
0 30 0 24
0 31 0 27
